70
1 0 1
2 0 1
2 1 1
3 0 1
4 0 1
4 1 1
5 0 1
5 1 1
5 4 1
6 1 1
6 2 1
6 5 1
7 0 1
7 1 1
7 3 1
7 4 1
8 0 1
8 1 1
8 6 1
8 7 1
9 3 1
9 4 1
9 6 1
10 2 1
10 6 1
10 9 1
11 0 1
11 3 1
11 6 1
12 1 1
12 3 1
12 4 1
12 5 1
12 8 1
12 9 1
12 10 1
13 3 1
13 5 1
13 10 1
13 11 1
14 0 1
14 4 1
14 6 1
14 11 1
14 12 1
14 13 1
15 5 1
15 6 1
15 8 1
15 12 1
16 0 1
16 1 1
16 2 1
16 3 1
16 4 1
16 5 1
16 6 1
16 8 1
16 10 1
16 12 1
16 13 1
16 15 1
17 3 1
17 4 1
17 8 1
17 10 1
17 11 1
17 15 1
18 9 1
18 10 1
18 12 1
18 13 1
18 14 1
19 1 1
19 2 1
19 3 1
19 4 1
19 5 1
19 7 1
19 8 1
19 9 1
19 10 1
19 13 1
19 14 1
19 15 1
19 16 1
19 18 1
20 6 1
20 8 1
20 10 1
20 11 1
20 13 1
20 14 1
20 16 1
20 17 1
20 19 1
21 2 1
21 3 1
21 4 1
21 7 1
21 9 1
21 11 1
21 13 1
21 15 1
21 16 1
21 17 1
21 18 1
21 19 1
21 20 1
22 0 1
22 2 1
22 4 1
22 5 1
22 6 1
22 8 1
22 14 1
22 15 1
22 17 1
22 19 1
22 20 1
23 0 1
23 2 1
23 4 1
23 5 1
23 6 1
23 7 1
23 9 1
23 11 1
23 15 1
23 16 1
23 17 1
23 19 1
23 21 1
23 22 1
24 2 1
24 4 1
24 7 1
24 10 1
24 13 1
24 14 1
24 15 1
24 16 1
24 17 1
24 21 1
25 1 1
25 4 1
25 5 1
25 6 1
25 7 1
25 8 1
25 12 1
25 13 1
25 14 1
25 15 1
25 17 1
25 21 1
25 22 1
25 24 1
26 1 1
26 6 1
26 8 1
26 11 1
26 12 1
26 13 1
26 16 1
26 17 1
26 19 1
26 22 1
26 23 1
26 24 1
26 25 1
27 6 1
27 7 1
27 8 1
27 11 1
27 12 1
27 13 1
27 14 1
27 18 1
27 19 1
27 20 1
27 21 1
27 22 1
27 23 1
27 24 1
27 25 1
28 0 1
28 5 1
28 7 1
28 8 1
28 9 1
28 13 1
28 16 1
28 17 1
28 19 1
28 24 1
29 2 1
29 5 1
29 6 1
29 7 1
29 8 1
29 10 1
29 11 1
29 12 1
29 13 1
29 14 1
29 16 1
29 20 1
29 21 1
29 22 1
29 23 1
29 24 1
29 25 1
29 26 1
29 27 1
29 28 1
30 0 1
30 1 1
30 2 1
30 4 1
30 10 1
30 17 1
30 18 1
30 21 1
30 22 1
30 24 1
30 29 1
31 0 1
31 2 1
31 3 1
31 4 1
31 7 1
31 11 1
31 14 1
31 15 1
31 19 1
31 20 1
31 21 1
31 22 1
31 23 1
31 25 1
31 26 1
31 28 1
31 29 1
31 30 1
32 0 1
32 3 1
32 5 1
32 6 1
32 7 1
32 10 1
32 14 1
32 15 1
32 18 1
32 20 1
32 21 1
32 22 1
32 23 1
32 24 1
32 27 1
32 28 1
32 31 1
33 0 1
33 3 1
33 9 1
33 10 1
33 11 1
33 12 1
33 18 1
33 19 1
33 23 1
33 26 1
33 28 1
33 29 1
33 31 1
34 0 1
34 1 1
34 4 1
34 6 1
34 7 1
34 8 1
34 10 1
34 14 1
34 16 1
34 17 1
34 19 1
34 21 1
34 22 1
34 23 1
34 25 1
34 27 1
34 28 1
34 31 1
35 2 1
35 5 1
35 6 1
35 9 1
35 10 1
35 11 1
35 13 1
35 16 1
35 17 1
35 18 1
35 20 1
35 25 1
35 26 1
35 27 1
35 30 1
35 33 1
36 0 1
36 1 1
36 4 1
36 5 1
36 6 1
36 7 1
36 9 1
36 12 1
36 13 1
36 14 1
36 15 1
36 18 1
36 20 1
36 22 1
36 23 1
36 26 1
36 27 1
36 28 1
36 30 1
36 32 1
36 34 1
37 1 1
37 3 1
37 6 1
37 9 1
37 12 1
37 13 1
37 15 1
37 16 1
37 17 1
37 19 1
37 20 1
37 21 1
37 22 1
37 23 1
37 24 1
37 25 1
37 26 1
37 29 1
37 30 1
37 33 1
37 35 1
37 36 1
38 0 1
38 1 1
38 2 1
38 7 1
38 8 1
38 9 1
38 10 1
38 11 1
38 12 1
38 14 1
38 18 1
38 20 1
38 22 1
38 25 1
38 26 1
38 27 1
38 28 1
38 29 1
38 30 1
38 31 1
38 33 1
38 34 1
38 37 1
39 1 1
39 2 1
39 6 1
39 9 1
39 10 1
39 11 1
39 12 1
39 16 1
39 17 1
39 20 1
39 21 1
39 25 1
39 27 1
39 33 1
39 34 1
39 35 1
39 36 1
40 3 1
40 4 1
40 7 1
40 9 1
40 13 1
40 15 1
40 19 1
40 22 1
40 23 1
40 25 1
40 26 1
40 29 1
40 32 1
40 33 1
40 34 1
40 35 1
40 37 1
41 2 1
41 3 1
41 4 1
41 7 1
41 10 1
41 11 1
41 12 1
41 13 1
41 14 1
41 17 1
41 18 1
41 19 1
41 21 1
41 23 1
41 26 1
41 27 1
41 28 1
41 29 1
41 30 1
41 32 1
41 33 1
41 34 1
41 35 1
41 36 1
41 39 1
42 2 1
42 3 1
42 4 1
42 5 1
42 6 1
42 7 1
42 8 1
42 12 1
42 13 1
42 15 1
42 17 1
42 18 1
42 21 1
42 22 1
42 24 1
42 25 1
42 27 1
42 28 1
42 35 1
42 36 1
42 39 1
42 40 1
43 0 1
43 1 1
43 2 1
43 3 1
43 6 1
43 8 1
43 10 1
43 12 1
43 13 1
43 20 1
43 21 1
43 24 1
43 25 1
43 27 1
43 28 1
43 30 1
43 32 1
43 33 1
43 35 1
43 36 1
43 39 1
43 40 1
44 0 1
44 2 1
44 3 1
44 6 1
44 9 1
44 12 1
44 13 1
44 14 1
44 15 1
44 16 1
44 18 1
44 19 1
44 21 1
44 22 1
44 24 1
44 27 1
44 33 1
44 37 1
44 38 1
44 39 1
44 40 1
44 41 1
44 42 1
44 43 1
45 3 1
45 4 1
45 7 1
45 8 1
45 11 1
45 13 1
45 15 1
45 20 1
45 22 1
45 27 1
45 29 1
45 30 1
45 32 1
45 38 1
45 40 1
45 42 1
45 44 1
46 3 1
46 6 1
46 7 1
46 11 1
46 16 1
46 17 1
46 23 1
46 25 1
46 28 1
46 29 1
46 30 1
46 31 1
46 32 1
46 36 1
46 37 1
46 40 1
46 41 1
46 44 1
47 0 1
47 2 1
47 4 1
47 8 1
47 9 1
47 11 1
47 12 1
47 13 1
47 17 1
47 18 1
47 19 1
47 20 1
47 22 1
47 26 1
47 27 1
47 28 1
47 30 1
47 32 1
47 33 1
47 34 1
47 41 1
47 42 1
47 44 1
47 45 1
47 46 1
48 0 1
48 1 1
48 2 1
48 3 1
48 4 1
48 6 1
48 8 1
48 9 1
48 10 1
48 13 1
48 14 1
48 15 1
48 16 1
48 17 1
48 19 1
48 20 1
48 21 1
48 22 1
48 28 1
48 33 1
48 38 1
48 39 1
48 40 1
48 41 1
48 43 1
48 44 1
48 46 1
49 0 1
49 5 1
49 6 1
49 7 1
49 8 1
49 9 1
49 11 1
49 12 1
49 13 1
49 15 1
49 17 1
49 19 1
49 20 1
49 27 1
49 28 1
49 29 1
49 30 1
49 34 1
49 36 1
49 37 1
49 40 1
49 41 1
49 43 1
49 44 1
49 47 1
50 0 1
50 1 1
50 2 1
50 8 1
50 12 1
50 13 1
50 17 1
50 20 1
50 23 1
50 26 1
50 27 1
50 29 1
50 33 1
50 35 1
50 39 1
50 40 1
50 42 1
50 43 1
50 44 1
50 46 1
50 48 1
50 49 1
51 1 1
51 2 1
51 4 1
51 6 1
51 7 1
51 8 1
51 9 1
51 11 1
51 12 1
51 14 1
51 16 1
51 20 1
51 23 1
51 24 1
51 25 1
51 27 1
51 28 1
51 30 1
51 31 1
51 34 1
51 35 1
51 36 1
51 37 1
51 38 1
51 39 1
51 40 1
51 42 1
51 43 1
51 44 1
51 45 1
51 47 1
51 48 1
51 50 1
52 0 1
52 5 1
52 6 1
52 9 1
52 11 1
52 13 1
52 14 1
52 15 1
52 16 1
52 20 1
52 21 1
52 24 1
52 25 1
52 26 1
52 29 1
52 31 1
52 32 1
52 33 1
52 35 1
52 36 1
52 37 1
52 38 1
52 43 1
52 44 1
52 45 1
52 46 1
52 47 1
52 48 1
52 49 1
52 50 1
52 51 1
53 0 1
53 1 1
53 4 1
53 5 1
53 6 1
53 8 1
53 14 1
53 16 1
53 21 1
53 22 1
53 26 1
53 28 1
53 29 1
53 30 1
53 34 1
53 35 1
53 39 1
53 40 1
53 47 1
53 48 1
53 50 1
54 1 1
54 3 1
54 4 1
54 10 1
54 15 1
54 18 1
54 20 1
54 21 1
54 22 1
54 24 1
54 25 1
54 27 1
54 28 1
54 29 1
54 33 1
54 35 1
54 36 1
54 38 1
54 39 1
54 40 1
54 45 1
54 51 1
55 0 1
55 1 1
55 2 1
55 3 1
55 5 1
55 8 1
55 9 1
55 11 1
55 13 1
55 15 1
55 19 1
55 20 1
55 21 1
55 22 1
55 23 1
55 24 1
55 27 1
55 28 1
55 29 1
55 33 1
55 34 1
55 35 1
55 39 1
55 42 1
55 43 1
55 44 1
55 47 1
55 49 1
55 50 1
55 51 1
56 0 1
56 1 1
56 3 1
56 4 1
56 5 1
56 11 1
56 13 1
56 17 1
56 18 1
56 21 1
56 26 1
56 29 1
56 31 1
56 32 1
56 33 1
56 34 1
56 35 1
56 39 1
56 42 1
56 44 1
56 45 1
56 46 1
56 48 1
56 53 1
56 54 1
56 55 1
57 0 1
57 1 1
57 3 1
57 6 1
57 8 1
57 9 1
57 10 1
57 12 1
57 13 1
57 16 1
57 17 1
57 18 1
57 20 1
57 21 1
57 23 1
57 25 1
57 27 1
57 29 1
57 30 1
57 31 1
57 32 1
57 34 1
57 37 1
57 38 1
57 41 1
57 43 1
57 45 1
57 46 1
57 47 1
57 48 1
57 53 1
57 56 1
58 2 1
58 4 1
58 8 1
58 11 1
58 13 1
58 14 1
58 16 1
58 17 1
58 18 1
58 19 1
58 20 1
58 22 1
58 25 1
58 26 1
58 27 1
58 28 1
58 29 1
58 31 1
58 34 1
58 35 1
58 36 1
58 37 1
58 40 1
58 43 1
58 44 1
58 45 1
58 48 1
58 51 1
58 52 1
58 53 1
58 56 1
59 3 1
59 9 1
59 14 1
59 15 1
59 19 1
59 20 1
59 21 1
59 24 1
59 25 1
59 27 1
59 30 1
59 33 1
59 34 1
59 36 1
59 37 1
59 38 1
59 40 1
59 41 1
59 42 1
59 44 1
59 46 1
59 47 1
59 48 1
59 50 1
59 52 1
59 53 1
59 54 1
59 55 1
59 57 1
59 58 1
60 0 1
60 2 1
60 5 1
60 6 1
60 9 1
60 10 1
60 11 1
60 13 1
60 15 1
60 20 1
60 23 1
60 25 1
60 26 1
60 27 1
60 29 1
60 31 1
60 32 1
60 33 1
60 34 1
60 36 1
60 37 1
60 43 1
60 45 1
60 47 1
60 49 1
60 57 1
61 2 1
61 5 1
61 6 1
61 14 1
61 15 1
61 16 1
61 17 1
61 18 1
61 20 1
61 21 1
61 22 1
61 23 1
61 24 1
61 26 1
61 27 1
61 30 1
61 33 1
61 34 1
61 36 1
61 38 1
61 39 1
61 42 1
61 44 1
61 45 1
61 47 1
61 50 1
61 52 1
61 55 1
61 58 1
61 60 1
62 2 1
62 5 1
62 8 1
62 14 1
62 15 1
62 17 1
62 19 1
62 22 1
62 23 1
62 27 1
62 29 1
62 33 1
62 34 1
62 36 1
62 37 1
62 38 1
62 39 1
62 40 1
62 42 1
62 43 1
62 44 1
62 45 1
62 46 1
62 47 1
62 49 1
62 51 1
62 52 1
62 53 1
62 54 1
62 55 1
62 57 1
62 58 1
62 61 1
63 0 1
63 1 1
63 2 1
63 3 1
63 7 1
63 8 1
63 10 1
63 11 1
63 16 1
63 22 1
63 23 1
63 24 1
63 25 1
63 28 1
63 31 1
63 35 1
63 36 1
63 37 1
63 41 1
63 42 1
63 46 1
63 47 1
63 51 1
63 55 1
63 57 1
63 58 1
63 60 1
63 61 1
63 62 1
64 1 1
64 3 1
64 5 1
64 6 1
64 8 1
64 10 1
64 11 1
64 12 1
64 13 1
64 15 1
64 19 1
64 22 1
64 23 1
64 24 1
64 26 1
64 27 1
64 29 1
64 30 1
64 31 1
64 33 1
64 35 1
64 36 1
64 37 1
64 38 1
64 41 1
64 42 1
64 43 1
64 44 1
64 45 1
64 47 1
64 49 1
64 50 1
64 51 1
64 52 1
64 53 1
64 54 1
64 58 1
64 59 1
64 60 1
65 0 1
65 3 1
65 6 1
65 8 1
65 9 1
65 12 1
65 13 1
65 14 1
65 17 1
65 18 1
65 19 1
65 21 1
65 23 1
65 24 1
65 28 1
65 29 1
65 30 1
65 33 1
65 35 1
65 36 1
65 37 1
65 39 1
65 41 1
65 43 1
65 45 1
65 46 1
65 48 1
65 49 1
65 51 1
65 52 1
65 54 1
65 56 1
65 60 1
65 61 1
65 62 1
65 63 1
65 64 1
66 0 1
66 1 1
66 2 1
66 3 1
66 4 1
66 6 1
66 7 1
66 8 1
66 12 1
66 14 1
66 17 1
66 18 1
66 19 1
66 20 1
66 21 1
66 25 1
66 26 1
66 29 1
66 30 1
66 31 1
66 35 1
66 38 1
66 39 1
66 41 1
66 43 1
66 44 1
66 45 1
66 50 1
66 51 1
66 53 1
66 54 1
66 55 1
66 63 1
66 64 1
66 65 1
67 0 1
67 2 1
67 3 1
67 6 1
67 8 1
67 9 1
67 10 1
67 11 1
67 13 1
67 15 1
67 17 1
67 20 1
67 21 1
67 22 1
67 23 1
67 25 1
67 26 1
67 29 1
67 30 1
67 33 1
67 34 1
67 35 1
67 37 1
67 38 1
67 39 1
67 41 1
67 43 1
67 44 1
67 47 1
67 50 1
67 51 1
67 52 1
67 53 1
67 56 1
67 57 1
67 58 1
67 59 1
67 62 1
67 63 1
67 64 1
67 65 1
68 1 1
68 4 1
68 5 1
68 7 1
68 9 1
68 11 1
68 13 1
68 14 1
68 16 1
68 17 1
68 19 1
68 20 1
68 24 1
68 25 1
68 26 1
68 29 1
68 32 1
68 35 1
68 37 1
68 41 1
68 47 1
68 48 1
68 49 1
68 56 1
68 59 1
68 60 1
68 61 1
68 62 1
68 64 1
68 65 1
69 0 1
69 1 1
69 3 1
69 5 1
69 6 1
69 9 1
69 11 1
69 12 1
69 13 1
69 15 1
69 17 1
69 21 1
69 22 1
69 23 1
69 24 1
69 26 1
69 27 1
69 28 1
69 29 1
69 31 1
69 33 1
69 34 1
69 36 1
69 39 1
69 42 1
69 45 1
69 46 1
69 47 1
69 52 1
69 54 1
69 55 1
69 56 1
69 58 1
69 59 1
69 60 1
69 61 1
69 62 1
69 64 1
69 65 1
69 66 1
69 67 1
